peakDumbCharging = 11100; 
Machine = anon_enum(16); 
machineSpeed = [3700,3700,3700,3700,3700,3700,3700,3700,3700,3700,3700,3700,3700,3700,3700,3700]; 
machineLoad = [3700,3700,3700,3700,3700,3700,3700,3700,3700,3700,3700,3700,3700,3700,3700,3700]; 
Car = anon_enum(12); 
demandCar = [5800,9480,2360,4640,3960,11240,160,7200,14200,14160,32440,22840]; 
arrivalCar = [72,69,67,65,61,61,61,57,55,40,35,34]; 
departureCar = [80,75,69,73,64,66,62,61,61,46,61,43]; 
